p ocr 1086 1086 2631
1 1087
1 1088
2 1087
2 1088
2 1089
3 1088
3 1089
3 1090
4 1089
4 1090
4 1093
5 1090
5 1091
6 1091
6 1092
7 1092
7 1093
7 1097
8 1093
8 1094
9 1094
9 1095
10 1095
10 1096
11 1096
11 1097
11 1098
12 1097
12 1098
12 1102
13 1098
13 1099
14 1099
14 1100
15 1100
15 1101
16 1101
16 1102
16 1104
17 1102
17 1103
18 1103
18 1104
18 1106
19 1104
19 1105
20 1105
20 1106
20 1107
21 1106
21 1107
21 1110
22 1107
22 1108
23 1108
23 1109
24 1109
24 1110
24 1112
25 1110
25 1111
26 1111
26 1112
26 1114
27 1112
27 1113
28 1113
28 1114
28 1117
29 1114
29 1115
30 1115
30 1116
31 1116
31 1117
31 1120
32 1117
32 1118
33 1118
33 1119
34 1119
34 1120
34 1121
35 1120
35 1121
35 1124
36 1121
36 1122
37 1122
37 1123
38 1123
38 1124
38 1128
39 1124
39 1125
40 1125
40 1126
41 1126
41 1127
42 1127
42 1128
42 1129
43 1128
43 1129
43 1132
44 1129
44 1130
45 1130
45 1131
46 1131
46 1132
46 1133
47 1132
47 1133
47 1137
48 1133
48 1134
49 1134
49 1135
50 1135
50 1136
51 1136
51 1137
51 1138
52 1137
52 1138
52 1140
53 1138
53 1139
54 1139
54 1140
54 1144
55 1140
55 1141
56 1141
56 1142
57 1142
57 1143
58 1143
58 1144
58 1147
59 1144
59 1145
60 1145
60 1146
61 1146
61 1147
61 1149
62 1147
62 1148
63 1148
63 1149
63 1151
64 1149
64 1150
65 1150
65 1151
65 1155
66 1151
66 1152
67 1152
67 1153
68 1153
68 1154
69 1154
69 1155
69 1158
70 1155
70 1156
71 1156
71 1157
72 1157
72 1158
72 1161
73 1158
73 1159
74 1159
74 1160
75 1160
75 1161
75 1165
76 1161
76 1162
77 1162
77 1163
78 1163
78 1164
79 1164
79 1165
79 1167
80 1165
80 1166
81 1166
81 1167
81 1169
82 1167
82 1168
83 1168
83 1169
83 1170
84 1169
84 1170
84 1171
85 1170
85 1171
85 1173
86 1171
86 1172
87 1172
87 1173
87 1175
88 1173
88 1174
89 1174
89 1175
89 1177
90 1175
90 1176
91 1176
91 1177
91 1178
92 1177
92 1178
92 1179
93 1178
93 1179
93 1183
94 1179
94 1180
95 1180
95 1181
96 1181
96 1182
97 1182
97 1183
97 1187
98 1183
98 1184
99 1184
99 1185
100 1185
100 1186
101 1186
101 1187
101 1189
102 1187
102 1188
103 1188
103 1189
103 1193
104 1189
104 1190
105 1190
105 1191
106 1191
106 1192
107 1192
107 1193
107 1197
108 1193
108 1194
109 1194
109 1195
110 1195
110 1196
111 1196
111 1197
111 1200
112 1197
112 1198
113 1198
113 1199
114 1199
114 1200
114 1203
115 1200
115 1201
116 1201
116 1202
117 1202
117 1203
117 1205
118 1203
118 1204
119 1204
119 1205
119 1208
120 1205
120 1206
121 1206
121 1207
122 1207
122 1208
122 1212
123 1208
123 1209
124 1209
124 1210
125 1210
125 1211
126 1211
126 1212
126 1215
127 1212
127 1213
128 1213
128 1214
129 1214
129 1215
129 1216
130 1215
130 1216
130 1217
131 1216
131 1217
131 1220
132 1217
132 1218
133 1218
133 1219
134 1219
134 1220
134 1224
135 1220
135 1221
136 1221
136 1222
137 1222
137 1223
138 1223
138 1224
138 1228
139 1224
139 1225
140 1225
140 1226
141 1226
141 1227
142 1227
142 1228
142 1231
143 1228
143 1229
144 1229
144 1230
145 1230
145 1231
145 1233
146 1231
146 1232
147 1232
147 1233
147 1237
148 1233
148 1234
149 1234
149 1235
150 1235
150 1236
151 1236
151 1237
151 1239
152 1237
152 1238
153 1238
153 1239
153 1241
154 1239
154 1240
155 1240
155 1241
155 1242
156 1241
156 1242
156 1243
157 1242
157 1243
157 1245
158 1243
158 1244
159 1244
159 1245
159 1247
160 1245
160 1246
161 1246
161 1247
161 1248
162 1247
162 1248
162 1251
163 1248
163 1249
164 1249
164 1250
165 1250
165 1251
165 1254
166 1251
166 1252
167 1252
167 1253
168 1253
168 1254
168 1255
169 1254
169 1255
169 1259
170 1255
170 1256
171 1256
171 1257
172 1257
172 1258
173 1258
173 1259
173 1261
174 1259
174 1260
175 1260
175 1261
175 1262
176 1261
176 1262
176 1264
177 1262
177 1263
178 1263
178 1264
178 1267
179 1264
179 1265
180 1265
180 1266
181 1266
181 1267
181 1271
182 1267
182 1268
183 1268
183 1269
184 1269
184 1270
185 1270
185 1271
185 1272
186 1271
186 1272
186 1276
187 1272
187 1273
188 1273
188 1274
189 1274
189 1275
190 1275
190 1276
190 1280
191 1276
191 1277
192 1277
192 1278
193 1278
193 1279
194 1279
194 1280
194 1284
195 1280
195 1281
196 1281
196 1282
197 1282
197 1283
198 1283
198 1284
198 1286
199 1284
199 1285
200 1285
200 1286
200 1290
201 1286
201 1287
202 1287
202 1288
203 1288
203 1289
204 1289
204 1290
204 1292
205 1290
205 1291
206 1291
206 1292
206 1293
207 1292
207 1293
207 1295
208 1293
208 1294
209 1294
209 1295
209 1296
210 1295
210 1296
210 1297
211 1296
211 1297
211 1298
212 1297
212 1298
212 1302
213 1298
213 1299
214 1299
214 1300
215 1300
215 1301
216 1301
216 1302
216 1306
217 1302
217 1303
218 1303
218 1304
219 1304
219 1305
220 1305
220 1306
220 1308
221 1306
221 1307
222 1307
222 1308
222 1310
223 1308
223 1309
224 1309
224 1310
224 1311
225 1310
225 1311
225 1314
226 1311
226 1312
227 1312
227 1313
228 1313
228 1314
228 1315
229 1314
229 1315
229 1317
230 1315
230 1316
231 1316
231 1317
231 1318
232 1317
232 1318
232 1322
233 1318
233 1319
234 1319
234 1320
235 1320
235 1321
236 1321
236 1322
236 1326
237 1322
237 1323
238 1323
238 1324
239 1324
239 1325
240 1325
240 1326
240 1327
241 1326
241 1327
241 1328
242 1327
242 1328
242 1329
243 1328
243 1329
243 1333
244 1329
244 1330
245 1330
245 1331
246 1331
246 1332
247 1332
247 1333
247 1336
248 1333
248 1334
249 1334
249 1335
250 1335
250 1336
250 1340
251 1336
251 1337
252 1337
252 1338
253 1338
253 1339
254 1339
254 1340
254 1341
255 1340
255 1341
255 1342
256 1341
256 1342
256 1346
257 1342
257 1343
258 1343
258 1344
259 1344
259 1345
260 1345
260 1346
260 1348
261 1346
261 1347
262 1347
262 1348
262 1351
263 1348
263 1349
264 1349
264 1350
265 1350
265 1351
265 1354
266 1351
266 1352
267 1352
267 1353
268 1353
268 1354
268 1358
269 1354
269 1355
270 1355
270 1356
271 1356
271 1357
272 1357
272 1358
272 1359
273 1358
273 1359
273 1362
274 1359
274 1360
275 1360
275 1361
276 1361
276 1362
276 1364
277 1362
277 1363
278 1363
278 1364
278 1365
279 1364
279 1365
279 1369
280 1365
280 1366
281 1366
281 1367
282 1367
282 1368
283 1368
283 1369
283 1372
284 1369
284 1370
285 1370
285 1371
286 1371
286 1372
286 1376
287 1372
287 1373
288 1373
288 1374
289 1374
289 1375
290 1375
290 1376
290 1377
291 1376
291 1377
291 1380
292 1377
292 1378
293 1378
293 1379
294 1379
294 1380
294 1382
295 1380
295 1381
296 1381
296 1382
296 1385
297 1382
297 1383
298 1383
298 1384
299 1384
299 1385
299 1388
300 1385
300 1386
301 1386
301 1387
302 1387
302 1388
302 1391
303 1388
303 1389
304 1389
304 1390
305 1390
305 1391
305 1392
306 1391
306 1392
306 1393
307 1392
307 1393
307 1394
308 1393
308 1394
308 1397
309 1394
309 1395
310 1395
310 1396
311 1396
311 1397
311 1400
312 1397
312 1398
313 1398
313 1399
314 1399
314 1400
314 1403
315 1400
315 1401
316 1401
316 1402
317 1402
317 1403
317 1405
318 1403
318 1404
319 1404
319 1405
319 1409
320 1405
320 1406
321 1406
321 1407
322 1407
322 1408
323 1408
323 1409
323 1410
324 1409
324 1410
324 1413
325 1410
325 1411
326 1411
326 1412
327 1412
327 1413
327 1415
328 1413
328 1414
329 1414
329 1415
329 1419
330 1415
330 1416
331 1416
331 1417
332 1417
332 1418
333 1418
333 1419
333 1421
334 1419
334 1420
335 1420
335 1421
335 1423
336 1421
336 1422
337 1422
337 1423
337 1425
338 1423
338 1424
339 1424
339 1425
339 1428
340 1425
340 1426
341 1426
341 1427
342 1427
342 1428
342 1431
343 1428
343 1429
344 1429
344 1430
345 1430
345 1431
345 1433
346 1431
346 1432
347 1432
347 1433
347 1435
348 1433
348 1434
349 1434
349 1435
349 1439
350 1435
350 1436
351 1436
351 1437
352 1437
352 1438
353 1438
353 1439
353 1443
354 1439
354 1440
355 1440
355 1441
356 1441
356 1442
357 1442
357 1443
357 1444
358 1443
358 1444
358 1448
359 1444
359 1445
360 1445
360 1446
361 1446
361 1447
362 1447
362 1448
362 1451
363 1448
363 1449
364 1449
364 1450
365 1450
365 1451
365 1454
366 1451
366 1452
367 1452
367 1453
368 1453
368 1454
368 1456
369 1454
369 1455
370 1455
370 1456
370 1459
371 1456
371 1457
372 1457
372 1458
373 1458
373 1459
373 1460
374 1459
374 1460
374 1461
375 1460
375 1461
375 1465
376 1461
376 1462
377 1462
377 1463
378 1463
378 1464
379 1464
379 1465
379 1467
380 1465
380 1466
381 1466
381 1467
381 1470
382 1467
382 1468
383 1468
383 1469
384 1469
384 1470
384 1471
385 1470
385 1471
385 1473
386 1471
386 1472
387 1472
387 1473
387 1475
388 1473
388 1474
389 1474
389 1475
389 1476
390 1475
390 1476
390 1477
391 1476
391 1477
391 1480
392 1477
392 1478
393 1478
393 1479
394 1479
394 1480
394 1484
395 1480
395 1481
396 1481
396 1482
397 1482
397 1483
398 1483
398 1484
398 1487
399 1484
399 1485
400 1485
400 1486
401 1486
401 1487
401 1488
402 1487
402 1488
402 1492
403 1488
403 1489
404 1489
404 1490
405 1490
405 1491
406 1491
406 1492
406 1495
407 1492
407 1493
408 1493
408 1494
409 1494
409 1495
409 1498
410 1495
410 1496
411 1496
411 1497
412 1497
412 1498
412 1501
413 1498
413 1499
414 1499
414 1500
415 1500
415 1501
415 1502
416 1501
416 1502
416 1505
417 1502
417 1503
418 1503
418 1504
419 1504
419 1505
419 1506
420 1505
420 1506
420 1508
421 1506
421 1507
422 1507
422 1508
422 1512
423 1508
423 1509
424 1509
424 1510
425 1510
425 1511
426 1511
426 1512
426 1513
427 1512
427 1513
427 1515
428 1513
428 1514
429 1514
429 1515
429 1517
430 1515
430 1516
431 1516
431 1517
431 1520
432 1517
432 1518
433 1518
433 1519
434 1519
434 1520
434 1521
435 1520
435 1521
435 1524
436 1521
436 1522
437 1522
437 1523
438 1523
438 1524
438 1525
439 1524
439 1525
439 1526
440 1525
440 1526
440 1527
441 1526
441 1527
441 1529
442 1527
442 1528
443 1528
443 1529
443 1533
444 1529
444 1530
445 1530
445 1531
446 1531
446 1532
447 1532
447 1533
447 1537
448 1533
448 1534
449 1534
449 1535
450 1535
450 1536
451 1536
451 1537
451 1538
452 1537
452 1538
452 1540
453 1538
453 1539
454 1539
454 1540
454 1543
455 1540
455 1541
456 1541
456 1542
457 1542
457 1543
457 1546
458 1543
458 1544
459 1544
459 1545
460 1545
460 1546
460 1550
461 1546
461 1547
462 1547
462 1548
463 1548
463 1549
464 1549
464 1550
464 1552
465 1550
465 1551
466 1551
466 1552
466 1553
467 1552
467 1553
467 1554
468 1553
468 1554
468 1557
469 1554
469 1555
470 1555
470 1556
471 1556
471 1557
471 1561
472 1557
472 1558
473 1558
473 1559
474 1559
474 1560
475 1560
475 1561
475 1564
476 1561
476 1562
477 1562
477 1563
478 1563
478 1564
478 1565
479 1564
479 1565
479 1567
480 1565
480 1566
481 1566
481 1567
481 1569
482 1567
482 1568
483 1568
483 1569
483 1570
484 1569
484 1570
484 1572
485 1570
485 1571
486 1571
486 1572
486 1575
487 1572
487 1573
488 1573
488 1574
489 1574
489 1575
489 1577
490 1575
490 1576
491 1576
491 1577
491 1580
492 1577
492 1578
493 1578
493 1579
494 1579
494 1580
494 1583
495 1580
495 1581
496 1581
496 1582
497 1582
497 1583
497 1584
498 1583
498 1584
498 1585
499 1584
499 1585
499 1588
500 1585
500 1586
501 1586
501 1587
502 1587
502 1588
502 1591
503 1588
503 1589
504 1589
504 1590
505 1590
505 1591
505 1593
506 1591
506 1592
507 1592
507 1593
507 1596
508 1593
508 1594
509 1594
509 1595
510 1595
510 1596
510 1599
511 1596
511 1597
512 1597
512 1598
513 1598
513 1599
513 1603
514 1599
514 1600
515 1600
515 1601
516 1601
516 1602
517 1602
517 1603
517 1604
518 1603
518 1604
518 1607
519 1604
519 1605
520 1605
520 1606
521 1606
521 1607
521 1609
522 1607
522 1608
523 1608
523 1609
523 1610
524 1609
524 1610
524 1611
525 1610
525 1611
525 1612
526 1611
526 1612
526 1613
527 1612
527 1613
527 1615
528 1613
528 1614
529 1614
529 1615
529 1618
530 1615
530 1616
531 1616
531 1617
532 1617
532 1618
532 1619
533 1618
533 1619
533 1622
534 1619
534 1620
535 1620
535 1621
536 1621
536 1622
536 1624
537 1622
537 1623
538 1623
538 1624
538 1626
539 1624
539 1625
540 1625
540 1626
540 1627
541 1626
541 1627
541 1630
542 1627
542 1628
543 1628
543 1629
544 1629
544 1630
544 1632
545 1630
545 1631
546 1631
546 1632
546 1634
547 1632
547 1633
548 1633
548 1634
548 1636
549 1634
549 1635
550 1635
550 1636
550 1639
551 1636
551 1637
552 1637
552 1638
553 1638
553 1639
553 1642
554 1639
554 1640
555 1640
555 1641
556 1641
556 1642
556 1645
557 1642
557 1643
558 1643
558 1644
559 1644
559 1645
559 1646
560 1645
560 1646
560 1649
561 1646
561 1647
562 1647
562 1648
563 1648
563 1649
563 1652
564 1649
564 1650
565 1650
565 1651
566 1651
566 1652
566 1653
567 1652
567 1653
567 1657
568 1653
568 1654
569 1654
569 1655
570 1655
570 1656
571 1656
571 1657
571 1658
572 1657
572 1658
572 1660
573 1658
573 1659
574 1659
574 1660
574 1664
575 1660
575 1661
576 1661
576 1662
577 1662
577 1663
578 1663
578 1664
578 1667
579 1664
579 1665
580 1665
580 1666
581 1666
581 1667
581 1668
582 1667
582 1668
582 1670
583 1668
583 1669
584 1669
584 1670
584 1672
585 1670
585 1671
586 1671
586 1672
586 1675
587 1672
587 1673
588 1673
588 1674
589 1674
589 1675
589 1676
590 1675
590 1676
590 1680
591 1676
591 1677
592 1677
592 1678
593 1678
593 1679
594 1679
594 1680
594 1682
595 1680
595 1681
596 1681
596 1682
596 1685
597 1682
597 1683
598 1683
598 1684
599 1684
599 1685
599 1689
600 1685
600 1686
601 1686
601 1687
602 1687
602 1688
603 1688
603 1689
603 1692
604 1689
604 1690
605 1690
605 1691
606 1691
606 1692
606 1694
607 1692
607 1693
608 1693
608 1694
608 1697
609 1694
609 1695
610 1695
610 1696
611 1696
611 1697
611 1699
612 1697
612 1698
613 1698
613 1699
613 1703
614 1699
614 1700
615 1700
615 1701
616 1701
616 1702
617 1702
617 1703
617 1705
618 1703
618 1704
619 1704
619 1705
619 1709
620 1705
620 1706
621 1706
621 1707
622 1707
622 1708
623 1708
623 1709
623 1710
624 1709
624 1710
624 1714
625 1710
625 1711
626 1711
626 1712
627 1712
627 1713
628 1713
628 1714
628 1717
629 1714
629 1715
630 1715
630 1716
631 1716
631 1717
631 1721
632 1717
632 1718
633 1718
633 1719
634 1719
634 1720
635 1720
635 1721
635 1723
636 1721
636 1722
637 1722
637 1723
637 1726
638 1723
638 1724
639 1724
639 1725
640 1725
640 1726
640 1727
641 1726
641 1727
641 1728
642 1727
642 1728
642 1729
643 1728
643 1729
643 1733
644 1729
644 1730
645 1730
645 1731
646 1731
646 1732
647 1732
647 1733
647 1734
648 1733
648 1734
648 1738
649 1734
649 1735
650 1735
650 1736
651 1736
651 1737
652 1737
652 1738
652 1741
653 1738
653 1739
654 1739
654 1740
655 1740
655 1741
655 1744
656 1741
656 1742
657 1742
657 1743
658 1743
658 1744
658 1746
659 1744
659 1745
660 1745
660 1746
660 1749
661 1746
661 1747
662 1747
662 1748
663 1748
663 1749
663 1750
664 1749
664 1750
664 1754
665 1750
665 1751
666 1751
666 1752
667 1752
667 1753
668 1753
668 1754
668 1756
669 1754
669 1755
670 1755
670 1756
670 1760
671 1756
671 1757
672 1757
672 1758
673 1758
673 1759
674 1759
674 1760
674 1764
675 1760
675 1761
676 1761
676 1762
677 1762
677 1763
678 1763
678 1764
678 1766
679 1764
679 1765
680 1765
680 1766
680 1767
681 1766
681 1767
681 1769
682 1767
682 1768
683 1768
683 1769
683 1772
684 1769
684 1770
685 1770
685 1771
686 1771
686 1772
686 1774
687 1772
687 1773
688 1773
688 1774
688 1778
689 1774
689 1775
690 1775
690 1776
691 1776
691 1777
692 1777
692 1778
692 1781
693 1778
693 1779
694 1779
694 1780
695 1780
695 1781
695 1783
696 1781
696 1782
697 1782
697 1783
697 1785
698 1783
698 1784
699 1784
699 1785
699 1787
700 1785
700 1786
701 1786
701 1787
701 1789
702 1787
702 1788
703 1788
703 1789
703 1790
704 1789
704 1790
704 1794
705 1790
705 1791
706 1791
706 1792
707 1792
707 1793
708 1793
708 1794
708 1796
709 1794
709 1795
710 1795
710 1796
710 1800
711 1796
711 1797
712 1797
712 1798
713 1798
713 1799
714 1799
714 1800
714 1803
715 1800
715 1801
716 1801
716 1802
717 1802
717 1803
717 1806
718 1803
718 1804
719 1804
719 1805
720 1805
720 1806
720 1807
721 1806
721 1807
721 1808
722 1807
722 1808
722 1809
723 1808
723 1809
723 1813
724 1809
724 1810
725 1810
725 1811
726 1811
726 1812
727 1812
727 1813
727 1816
728 1813
728 1814
729 1814
729 1815
730 1815
730 1816
730 1817
731 1816
731 1817
731 1820
732 1817
732 1818
733 1818
733 1819
734 1819
734 1820
734 1823
735 1820
735 1821
736 1821
736 1822
737 1822
737 1823
737 1825
738 1823
738 1824
739 1824
739 1825
739 1828
740 1825
740 1826
741 1826
741 1827
742 1827
742 1828
742 1832
743 1828
743 1829
744 1829
744 1830
745 1830
745 1831
746 1831
746 1832
746 1835
747 1832
747 1833
748 1833
748 1834
749 1834
749 1835
749 1837
750 1835
750 1836
751 1836
751 1837
751 1839
752 1837
752 1838
753 1838
753 1839
753 1841
754 1839
754 1840
755 1840
755 1841
755 1843
756 1841
756 1842
757 1842
757 1843
757 1845
758 1843
758 1844
759 1844
759 1845
759 1846
760 1845
760 1846
760 1849
761 1846
761 1847
762 1847
762 1848
763 1848
763 1849
763 1850
764 1849
764 1850
764 1851
765 1850
765 1851
765 1855
766 1851
766 1852
767 1852
767 1853
768 1853
768 1854
769 1854
769 1855
769 1856
770 1855
770 1856
770 1859
771 1856
771 1857
772 1857
772 1858
773 1858
773 1859
773 1863
774 1859
774 1860
775 1860
775 1861
776 1861
776 1862
777 1862
777 1863
777 1865
778 1863
778 1864
779 1864
779 1865
779 1868
780 1865
780 1866
781 1866
781 1867
782 1867
782 1868
782 1871
783 1868
783 1869
784 1869
784 1870
785 1870
785 1871
785 1872
786 1871
786 1872
786 1874
787 1872
787 1873
788 1873
788 1874
788 1877
789 1874
789 1875
790 1875
790 1876
791 1876
791 1877
791 1878
792 1877
792 1878
792 1879
793 1878
793 1879
793 1882
794 1879
794 1880
795 1880
795 1881
796 1881
796 1882
796 1884
797 1882
797 1883
798 1883
798 1884
798 1888
799 1884
799 1885
800 1885
800 1886
801 1886
801 1887
802 1887
802 1888
802 1890
803 1888
803 1889
804 1889
804 1890
804 1891
805 1890
805 1891
805 1893
806 1891
806 1892
807 1892
807 1893
807 1896
808 1893
808 1894
809 1894
809 1895
810 1895
810 1896
810 1898
811 1896
811 1897
812 1897
812 1898
812 1902
813 1898
813 1899
814 1899
814 1900
815 1900
815 1901
816 1901
816 1902
816 1904
817 1902
817 1903
818 1903
818 1904
818 1908
819 1904
819 1905
820 1905
820 1906
821 1906
821 1907
822 1907
822 1908
822 1909
823 1908
823 1909
823 1911
824 1909
824 1910
825 1910
825 1911
825 1914
826 1911
826 1912
827 1912
827 1913
828 1913
828 1914
828 1916
829 1914
829 1915
830 1915
830 1916
830 1918
831 1916
831 1917
832 1917
832 1918
832 1921
833 1918
833 1919
834 1919
834 1920
835 1920
835 1921
835 1922
836 1921
836 1922
836 1924
837 1922
837 1923
838 1923
838 1924
838 1925
839 1924
839 1925
839 1927
840 1925
840 1926
841 1926
841 1927
841 1929
842 1927
842 1928
843 1928
843 1929
843 1932
844 1929
844 1930
845 1930
845 1931
846 1931
846 1932
846 1936
847 1932
847 1933
848 1933
848 1934
849 1934
849 1935
850 1935
850 1936
850 1937
851 1936
851 1937
851 1939
852 1937
852 1938
853 1938
853 1939
853 1941
854 1939
854 1940
855 1940
855 1941
855 1945
856 1941
856 1942
857 1942
857 1943
858 1943
858 1944
859 1944
859 1945
859 1949
860 1945
860 1946
861 1946
861 1947
862 1947
862 1948
863 1948
863 1949
863 1950
864 1949
864 1950
864 1951
865 1950
865 1951
865 1952
866 1951
866 1952
866 1953
867 1952
867 1953
867 1957
868 1953
868 1954
869 1954
869 1955
870 1955
870 1956
871 1956
871 1957
871 1958
872 1957
872 1958
872 1959
873 1958
873 1959
873 1960
874 1959
874 1960
874 1963
875 1960
875 1961
876 1961
876 1962
877 1962
877 1963
877 1964
878 1963
878 1964
878 1966
879 1964
879 1965
880 1965
880 1966
880 1967
881 1966
881 1967
881 1970
882 1967
882 1968
883 1968
883 1969
884 1969
884 1970
884 1971
885 1970
885 1971
885 1975
886 1971
886 1972
887 1972
887 1973
888 1973
888 1974
889 1974
889 1975
889 1979
890 1975
890 1976
891 1976
891 1977
892 1977
892 1978
893 1978
893 1979
893 1980
894 1979
894 1980
894 1981
895 1980
895 1981
895 1985
896 1981
896 1982
897 1982
897 1983
898 1983
898 1984
899 1984
899 1985
899 1989
900 1985
900 1986
901 1986
901 1987
902 1987
902 1988
903 1988
903 1989
903 1991
904 1989
904 1990
905 1990
905 1991
905 1992
906 1991
906 1992
906 1996
907 1992
907 1993
908 1993
908 1994
909 1994
909 1995
910 1995
910 1996
910 2000
911 1996
911 1997
912 1997
912 1998
913 1998
913 1999
914 1999
914 2000
914 2002
915 2000
915 2001
916 2001
916 2002
916 2003
917 2002
917 2003
917 2004
918 2003
918 2004
918 2005
919 2004
919 2005
919 2008
920 2005
920 2006
921 2006
921 2007
922 2007
922 2008
922 2010
923 2008
923 2009
924 2009
924 2010
924 2012
925 2010
925 2011
926 2011
926 2012
926 2015
927 2012
927 2013
928 2013
928 2014
929 2014
929 2015
929 2017
930 2015
930 2016
931 2016
931 2017
931 2020
932 2017
932 2018
933 2018
933 2019
934 2019
934 2020
934 2024
935 2020
935 2021
936 2021
936 2022
937 2022
937 2023
938 2023
938 2024
938 2026
939 2024
939 2025
940 2025
940 2026
940 2027
941 2026
941 2027
941 2029
942 2027
942 2028
943 2028
943 2029
943 2031
944 2029
944 2030
945 2030
945 2031
945 2032
946 2031
946 2032
946 2035
947 2032
947 2033
948 2033
948 2034
949 2034
949 2035
949 2039
950 2035
950 2036
951 2036
951 2037
952 2037
952 2038
953 2038
953 2039
953 2042
954 2039
954 2040
955 2040
955 2041
956 2041
956 2042
956 2046
957 2042
957 2043
958 2043
958 2044
959 2044
959 2045
960 2045
960 2046
960 2047
961 2046
961 2047
961 2049
962 2047
962 2048
963 2048
963 2049
963 2050
964 2049
964 2050
964 2052
965 2050
965 2051
966 2051
966 2052
966 2056
967 2052
967 2053
968 2053
968 2054
969 2054
969 2055
970 2055
970 2056
970 2060
971 2056
971 2057
972 2057
972 2058
973 2058
973 2059
974 2059
974 2060
974 2063
975 2060
975 2061
976 2061
976 2062
977 2062
977 2063
977 2066
978 2063
978 2064
979 2064
979 2065
980 2065
980 2066
980 2067
981 2066
981 2067
981 2070
982 2067
982 2068
983 2068
983 2069
984 2069
984 2070
984 2072
985 2070
985 2071
986 2071
986 2072
986 2074
987 2072
987 2073
988 2073
988 2074
988 2075
989 2074
989 2075
989 2079
990 2075
990 2076
991 2076
991 2077
992 2077
992 2078
993 2078
993 2079
993 2082
994 2079
994 2080
995 2080
995 2081
996 2081
996 2082
996 2086
997 2082
997 2083
998 2083
998 2084
999 2084
999 2085
1000 2085
1000 2086
1000 2089
1001 2086
1001 2087
1002 2087
1002 2088
1003 2088
1003 2089
1003 2091
1004 2089
1004 2090
1005 2090
1005 2091
1005 2094
1006 2091
1006 2092
1007 2092
1007 2093
1008 2093
1008 2094
1008 2095
1009 2094
1009 2095
1009 2098
1010 2095
1010 2096
1011 2096
1011 2097
1012 2097
1012 2098
1012 2101
1013 2098
1013 2099
1014 2099
1014 2100
1015 2100
1015 2101
1015 2102
1016 2101
1016 2102
1016 2104
1017 2102
1017 2103
1018 2103
1018 2104
1018 2107
1019 2104
1019 2105
1020 2105
1020 2106
1021 2106
1021 2107
1021 2110
1022 2107
1022 2108
1023 2108
1023 2109
1024 2109
1024 2110
1024 2112
1025 2110
1025 2111
1026 2111
1026 2112
1026 2114
1027 2112
1027 2113
1028 2113
1028 2114
1028 2116
1029 2114
1029 2115
1030 2115
1030 2116
1030 2118
1031 2116
1031 2117
1032 2117
1032 2118
1032 2121
1033 2118
1033 2119
1034 2119
1034 2120
1035 2120
1035 2121
1035 2122
1036 2121
1036 2122
1036 2123
1037 2122
1037 2123
1037 2124
1038 2123
1038 2124
1038 2128
1039 2124
1039 2125
1040 2125
1040 2126
1041 2126
1041 2127
1042 2127
1042 2128
1042 2131
1043 2128
1043 2129
1044 2129
1044 2130
1045 2130
1045 2131
1045 2133
1046 2131
1046 2132
1047 2132
1047 2133
1047 2136
1048 2133
1048 2134
1049 2134
1049 2135
1050 2135
1050 2136
1050 2137
1051 2136
1051 2137
1051 2140
1052 2137
1052 2138
1053 2138
1053 2139
1054 2139
1054 2140
1054 2142
1055 2140
1055 2141
1056 2141
1056 2142
1056 2144
1057 2142
1057 2143
1058 2143
1058 2144
1058 2145
1059 2144
1059 2145
1059 2148
1060 2145
1060 2146
1061 2146
1061 2147
1062 2147
1062 2148
1062 2149
1063 2148
1063 2149
1063 2151
1064 2149
1064 2150
1065 2150
1065 2151
1065 2153
1066 2151
1066 2152
1067 2152
1067 2153
1067 2154
1068 2153
1068 2154
1068 2158
1069 2154
1069 2155
1070 2155
1070 2156
1071 2156
1071 2157
1072 2157
1072 2158
1072 2162
1073 2158
1073 2159
1074 2159
1074 2160
1075 2160
1075 2161
1076 2161
1076 2162
1076 2163
1077 2162
1077 2163
1077 2165
1078 2163
1078 2164
1079 2164
1079 2165
1079 2166
1080 2165
1080 2166
1080 2169
1081 2166
1081 2167
1082 2167
1082 2168
1083 2168
1083 2169
1083 2172
1084 2169
1084 2170
1085 2170
1085 2171
1086 2171
1086 2172